
! RKS revDSD-PBEP86-D4/2021 defgrid3 RIJK RI NOPOP NOMULLIKEN NOLOEWDIN NOMAYER NoFrozencore NoUseSym

%basis
  Basis "def2-QZVPP"
  AuxJK "def2-QZVPP/C"
  AuxC "def2-QZVPP/C"
end
                    %pal nprocs 104 end
* xyz 0 1
C           1.73256282947551   -0.71990333613950   -0.48794971879682
C           0.83061300388627   -1.80395094950937   -0.35106191471728
C          -0.56159911818007   -1.56192773269565   -0.21212008896230
C          -1.04876425678225   -0.23649125590863   -0.10254847782448
C          -0.10162378391164    0.84829976476872    0.02266062473840
C           1.23208907170375    0.63241491296522   -0.34486586729926
C           3.08203707913341   -1.00815852913097   -0.68297425669227
C           3.54181236692348   -2.31415124130290   -0.73462152914789
C           2.66815209534312   -3.37188532151443   -0.60860847369280
C           1.30373915565373   -3.13685360480215   -0.42598882195472
C           0.37078872261759   -4.21125186380296   -0.34347260934389
C          -0.95822153238868   -3.97765472577005   -0.26739795974811
C          -1.46998364715962   -2.64824893702037   -0.23066599857053
C          -2.84351506351891   -2.39387158054762   -0.23910073770765
C          -3.30542426843797   -1.09636542894738   -0.29387655650858
C          -2.42260985241969   -0.03015446577394   -0.22977057727022
C          -0.48695214908455    2.14421715205813    0.49911514043604
C           0.36476957064096    3.25116819265621    0.25471524867965
C           1.62498865249060    3.02340381465397   -0.34444497828290
C           2.06854887043146    1.75647458808358   -0.55567901235161
C          -1.62755962196268    2.36516022060681    1.29706434587451
C          -1.97270598563043    3.62534757957450    1.71048116299124
C          -1.19463570175110    4.73111720417721    1.35085865489554
C          -0.03160016581872    4.54001428327333    0.65610554690063
H           3.80368013990790   -0.21294473000317   -0.77974591775301
H           4.59679608118601   -2.49935282087387   -0.87676814633551
H           3.02712167792825   -4.38964436234688   -0.66136124687985
H           0.75568989916870   -5.22087658329777   -0.37262246746258
H          -1.66494381413084   -4.79511049509880   -0.24148194510105
H          -3.53501000804718   -3.22407407745661   -0.24777044640265
H          -4.36462685801975   -0.90318537339130   -0.38439411965150
H          -2.80797728283189    0.97297318480365   -0.32432405492190
H           2.25235560758796    3.87247239060138   -0.57510983087686
H           3.06662109547103    1.61097980715420   -0.93634470574656
H          -2.20547705767496    1.52101035653143    1.64039978924113
H          -2.84475169464921    3.76763231550278    2.33211181631655
H          -1.49342502169641    5.72169279401117    1.66077106255375
H           0.61804097152635    5.37367885740377    0.42978706737528
