! RKS revDSD-PBEP86-D4/2021 defgrid3 RIJK RI NOPOP NOMULLIKEN NOLOEWDIN NOMAYER NoFrozencore NoUseSym

%basis
  Basis "def2-QZVPP"
  AuxJK "def2-QZVPP/C"
  AuxC "def2-QZVPP/C"
end

%pal
    nprocs 104
end

* xyz 0 1
C           0.85363153752512    0.85744245783452    0.00945557299710
C          -0.50926997408166    1.22704283770581   -0.00288518901226
C          -0.89443861049596    2.59074703850871   -0.00380672829794
C           0.09034680414420    3.60658192453980    0.01089733327095
C           1.45450970683100    3.21386920403241    0.02722813686711
C           1.81585866422801    1.90652972321741    0.02594592448452
C           1.20992347080667   -0.52324237867870    0.00608080096246
C           0.19473195097897   -1.51625296514111    0.00051821865044
C          -1.14355681923523   -1.11151648155496   -0.01106326169093
C          -1.51410094044554    0.22160411390886   -0.01535512081377
C          -2.88775908384268    0.61288386299207   -0.03121053238663
C          -3.24831544466617    1.91422899039728   -0.03372803630809
C          -2.26587214171656    2.95044180617177   -0.01961427782556
C          -2.61588129214276    4.29885753742692   -0.02108407994414
C          -1.64293184334780    5.28519076709215   -0.00652112717952
C          -0.30515450242928    4.94813619729621    0.00958126632446
C           2.56831051110791   -0.94339096439029    0.00501837544081
C           2.91151656038095   -2.25306131845731    0.00126075013524
C           1.92584346720675   -3.27515637850744    0.00310124724393
C           0.55841446227022   -2.91602137720989    0.00454044564085
C           2.29884497255399   -4.62897233852234    0.00449711094229
C           1.35170619992520   -5.61916258607736    0.00947577589457
C          -0.00021110647167   -5.27442075514507    0.01381922207727
C          -0.38536791361800   -3.95615452948191    0.01111843703944
H           2.20933784532887    3.98771668504015    0.04088600019702
H           2.86696405540891    1.66673641780217    0.03976315683664
H          -1.93320570375914   -1.84621221838908   -0.01941862886463
H          -3.63539414877876   -0.16802200989850   -0.04143318817981
H          -4.29034153865683    2.20139972124669   -0.04614029245113
H          -3.66165948199038    4.57142994342532   -0.03375118997118
H          -1.93582083450049    6.32526837221244   -0.00782216126097
H           0.45184336791822    5.71929398939332    0.02114951485025
H           3.35337890953532   -0.20475734567360    0.00422213739849
H           3.95186746316617   -2.54658106473217   -0.00208656143375
H           3.35131624684619   -4.87547476563299    0.00224911338608
H           1.64334444888122   -6.65908424005764    0.01073500271921
H          -0.74978524094949   -6.05244180303943    0.01952991551207
H          -1.44062401518960   -3.73447607837962    0.01584690802252
*
