! RKS revDSD-PBEP86-D4/2021 defgrid3 RIJK RI NOPOP NOMULLIKEN NOLOEWDIN NOMAYER NoFrozencore NoUseSym

%basis
  Basis "def2-QZVPP"
  AuxJK "def2-QZVPP/C"
  AuxC "def2-QZVPP/C"
end

%pal
    nprocs 104
end

* xyz 0 1
C           1.79759974042049    0.54450499668773    0.13425430187428
C           0.65515258027757   -0.28947158799030    0.08853155437120
C          -0.65530547309750    0.28942154629972    0.08778941991565
C          -0.80821611757257    1.69561595887587    0.13284353422117
C           0.35505473946866    2.54731604896551   -0.03265445349335
C           1.64395918926803    1.97793439665440   -0.03201677284142
C           3.04745005948658   -0.03806795598198    0.33757411528691
C           3.18212155443511   -1.40582031931443    0.45828548462834
C           2.08035615385691   -2.22733064040048    0.33708035078864
C           0.80801336862566   -1.69566427462715    0.13379492378396
C          -0.35507006487502   -2.54736863764914   -0.03299067618980
C          -1.64397558868399   -1.97798958717020   -0.03379948891206
C          -1.79780301822731   -0.54455469854348    0.13225486543458
C          -3.04788180880131    0.03802504381204    0.33414635691652
C          -3.18268975916939    1.40578156496577    0.45465974472936
C          -2.08078805046030    2.22728818338492    0.33467492669571
C           0.23111568362564    3.92901335220753   -0.22854026992924
C           1.33193144663403    4.73354068791006   -0.40481738510536
C           2.60258148667836    4.17220930890022   -0.40423685765860
C           2.74900445382907    2.81669758355363   -0.22735594392873
C          -0.23090756334962   -3.92906794876522   -0.22871990073077
C          -1.33152392001707   -4.73360264398295   -0.40620387702133
C          -2.60217639315709   -4.17227727455593   -0.40703069915586
C          -2.74880076068080   -2.81676263440815   -0.23033868224522
H           3.92863479349231    0.57543771756179    0.43138256213153
H           4.15589763585560   -1.83602125391838    0.64215350970867
H           2.22025273792095   -3.29192555217905    0.43053461142278
H          -3.92917219237680   -0.57547681810120    0.42698167682222
H          -4.15667313465593    1.83598842386688    0.63741281785126
H          -2.22079157244333    3.29188590805770    0.42793700853227
H          -0.74576723236721    4.38359909397460   -0.26668541614109
H           1.20759728626904    5.79570241531421   -0.55649133302198
H           3.47163363420100    4.79551901794759   -0.55547992573066
H           3.74294059102754    2.40063166793188   -0.26455934425505
H           0.74601966233517   -4.38364800686311   -0.26577954604335
H          -1.20701781875084   -5.79576569494157   -0.55772473496896
H          -3.47105858684420   -4.79559382952905   -0.55921844999221
H          -3.74269775090279   -2.40070355444574   -0.26864800250540
*
