! RKS revDSD-PBEP86-D4/2021 defgrid3 RIJK RI NOPOP NOMULLIKEN NOLOEWDIN NOMAYER NoFrozencore NoUseSym

%basis
  Basis "def2-QZVPP"
  AuxJK "def2-QZVPP/C"
  AuxC "def2-QZVPP/C"
end

%pal
    nprocs 104
end

* xyz 0 1
C           1.81080634471060    0.17180923125690   -0.00162735160529
C           0.40648599544395    0.31524218982904    0.00088380475530
C          -0.17754756366764    1.61447045037697    0.00428238211498
C           0.65986935390689    2.75780654462329    0.00649167947139
C           2.06476182621835    2.58086544485963    0.00433828286420
C           2.61323015281482    1.34201139948648    0.00024215872708
C           2.40359125534311   -1.13203482138803   -0.00417970799857
C           1.54799067729151   -2.26091762923140    0.00388425028708
C           0.15276195278725   -2.08175104184983    0.00752304240811
C          -0.43756952857502   -0.84003503500985    0.00219801959329
C          -1.88419572476730   -0.67200811106448   -0.00132516097594
C          -2.44965147601988    0.61971749744152    0.00184800909669
C          -1.58562071547400    1.78996783964545    0.00690051516705
C          -2.09253643883727    3.08379920978654    0.01281076680254
C          -1.26281837724064    4.19759167361944    0.01514922720706
C           0.10023691497383    4.04180671954371    0.01170584760378
C           3.79274848127603   -1.36373004579933   -0.01388390361122
C           4.30412682656579   -2.63450311891201   -0.01321220304430
C           3.45318537336156   -3.74600483216245   -0.00215334510894
C           2.09993835164834   -3.55891961832393    0.00600099231771
C          -2.74527174647374   -1.77659297050358   -0.01005400456747
C          -4.11316615644764   -1.63222734965207   -0.01348858476162
C          -4.66894308604323   -0.36083401684625   -0.00868204107213
C          -3.84490480990962    0.74038827878783   -0.00165329503466
H           2.69259390142386    3.46063941362940    0.00665037228581
H           3.68706385820797    1.24919755609501   -0.00015891627170
H          -0.44288475095255   -2.98071302777208    0.01400082471846
H          -3.15649124833103    3.25540582346817    0.01586323130273
H          -1.70001175280305    5.18553325262739    0.01959757669994
H           0.75628236206756    4.90022198349213    0.01333368845402
H           4.48230219333521   -0.53471379219372   -0.02309928763197
H           5.37402197468711   -2.78419347001291   -0.02131529110527
H           3.87158404464633   -4.74173945346033   -0.00089681150560
H           1.42789460607292   -4.40558850471397    0.01340700449600
H          -2.34389337112446   -2.77673898971365   -0.01538326198240
H          -4.74942616989530   -2.50495978183191   -0.02033945240783
H          -5.74159814371021   -0.23476575366127   -0.01121509139272
H          -4.30394537429333    1.71549685902470    0.00055603195858
*
