! RKS revDSD-PBEP86-D4/2021 defgrid3 RIJK RI NOPOP NOMULLIKEN NOLOEWDIN NOMAYER NoFrozencore NoUseSym

%basis
  Basis "def2-QZVPP"
  AuxJK "def2-QZVPP/C"
  AuxC "def2-QZVPP/C"
end

%pal
    nprocs 104
end

* xyz 0 1
C           0.38443962211902   -0.46870401781562    0.04097863266927
C          -0.96620374776567   -0.85455885775382   -0.03293478536753
C          -2.00027354018296    0.10960589658208   -0.22289615237801
C          -1.64199647232100    1.52024540954857   -0.25857199914215
C          -0.27760176583470    1.86168438848063   -0.44034980014010
C           0.73581940793426    0.86658435037946   -0.40474290344885
C           1.34003164011746   -1.39029920211287    0.53580470922993
C           0.98401900279994   -2.77114926924890    0.63788476209391
C          -0.31904429307510   -3.16903197708405    0.35319732393572
C          -1.31662243126596   -2.23324583592449    0.09426036506050
C          -2.66812133708458   -2.62040620746801   -0.06288510961904
C          -3.63251593807590   -1.68480205817249   -0.29643013139087
C          -3.30255479737274   -0.32536654204568   -0.35963698659798
C          -2.57796700691370    2.53773163717591   -0.18171284779948
C          -2.20941878519885    3.87404733896096   -0.33658871828431
C          -0.91260460283411    4.20840306445420   -0.62171595053420
C           0.07872872076181    3.21072788305962   -0.69676296998412
C           1.41014251205869    3.51654261094629   -1.04491532242132
C           2.33330561669932    2.51497461328380   -1.18156489751799
C           2.00232129025335    1.19752295105804   -0.86128930168451
C           2.61357414194106   -1.00781667370367    1.02079602587920
C           3.51816506710162   -1.93402436740672    1.45258230515604
C           3.20869540130885   -3.30653374658242    1.42403549598065
C           1.96454083192006   -3.70992861065931    1.04731988494105
H          -0.57108012607654   -4.21998557390047    0.37661431248219
H          -2.91744295196028   -3.66859915962025    0.01639452216835
H          -4.66394402056387   -1.98116747600161   -0.42147278126194
H          -4.09828987687428    0.38321946029024   -0.52772959523677
H          -3.61667785923588    2.31070914259343    0.00073670669992
H          -2.96520678709594    4.64221790504561   -0.25835039751115
H          -0.63185353055546    5.23705253118720   -0.79602908046009
H           1.67556311967887    4.54574193704694   -1.23859426623972
H           3.33453371796121    2.73855524397830   -1.52072449878337
H           2.74333989461204    0.42557961618220   -1.00023879967637
H           2.84731536974595    0.04237757513211    1.10634168594280
H           4.47678127788655   -1.61628402636127    1.83611298424095
H           3.94903768246256   -4.02570580266620    1.74248005859088
H           1.68706556689050   -4.75391413865174    1.08159752389303
*
