! RKS revDSD-PBEP86-D4/2021 defgrid3 RIJK RI NOPOP NOMULLIKEN NOLOEWDIN NOMAYER NoFrozencore NoUseSym

%basis
  Basis "def2-QZVPP"
  AuxJK "def2-QZVPP/C"
  AuxC "def2-QZVPP/C"
end

%pal
    nprocs 104
end

* xyz 0 1
C           0.75057887525829    0.05855891716714    0.02276012710438
C          -0.53724633797885   -0.57374573368554    0.05394468193336
C          -1.71894511354522    0.20837224300989    0.05201761282243
C          -1.62756057182051    1.65971107384952   -0.06975380491141
C          -0.35313786611061    2.28167158924098    0.00069179575162
C           0.83624608494203    1.51286349026053    0.09579168844444
C           1.86895950221293   -0.72425917857908   -0.07946862709834
C           1.81502702128222   -2.13648319104665   -0.10015528557356
C           0.56801023755680   -2.79216272465050    0.00965275619905
C          -0.62801282394123   -1.98897165594368    0.08661268344106
C          -1.89563362904317   -2.57895488464431    0.18620500258699
C          -3.03170040564937   -1.81015645354226    0.24592456336559
C          -2.94626012377635   -0.42896493253789    0.16949308869012
C          -2.74467163951375    2.45746176288072   -0.24634434624170
C          -2.65097542729659    3.84812636112234   -0.30879328006990
C          -1.43805134447917    4.46525808160187   -0.17978972486546
C          -0.26615667594930    3.69943567987990   -0.02339586481875
C           0.99040544023493    4.32136365486993    0.10943553099048
C           2.11972873728129    3.56602056935051    0.26398011915047
C           2.04281326212779    2.17351774620900    0.25076771962231
C           2.99700441299721   -2.89167243783013   -0.20859500041400
C           2.95897951387102   -4.26049321413781   -0.20216623377003
C           1.73098694567327   -4.91398669582407   -0.08398336322371
C           0.56482903824057   -4.19580739093380    0.01957124357163
H           2.84959077873971   -0.27986667976411   -0.15057512972642
H          -1.99384617710645   -3.65142652765969    0.22398033485026
H          -3.99923229984614   -2.28101103355397    0.34259047550630
H          -3.85967240463004    0.14146128547652    0.21299832610118
H          -3.72372214973307    2.01727318681568   -0.34645199844056
H          -3.54971823119605    4.43125224831104   -0.44865713538992
H          -1.35758917340572    5.54240321828481   -0.20236705737307
H           1.04190850239647    5.40042222343616    0.09453024562135
H           3.08267288854485    4.04021824105254    0.38725565439907
H           2.95947482170544    1.61875500773324    0.37141587230584
H           3.93946273424592   -2.36940690559983   -0.29532529868032
H           3.86928434026691   -4.83580860010262   -0.28548744702518
H           1.69934769880866   -5.99378942266739   -0.07576180565217
H          -0.36317845009441   -4.73817891959590    0.10645188256401
*
