
! RKS revDSD-PBEP86-D4/2021 defgrid3 RIJK RI NOPOP NOMULLIKEN NOLOEWDIN NOMAYER NoFrozencore NoUseSym

%basis
  Basis "def2-QZVPP"
  AuxJK "def2-QZVPP/C"
  AuxC "def2-QZVPP/C"
end
                    %pal nprocs 104 end
* xyz 0 1
C           1.43563331683890   -0.68285606651933    0.01019495995515
C           0.03831009385755   -0.87508373725167   -0.00385415249267
C          -0.84364404487081    0.23542305128896   -0.00136001667103
C          -0.33996859445811    1.55288193700009    0.01519568805082
C           1.06215299691839    1.71359018080564    0.03134681049945
C           1.90969908781136    0.64640777179004    0.02896416292039
C           2.31548803873042   -1.81723311233656    0.00472279143542
C           1.75502335039920   -3.12154792940082   -0.01381381127933
C           0.35623509836746   -3.28063949618413   -0.02566307521530
C          -0.49674575417139   -2.20254317497285   -0.02128930481824
C          -1.91763406105682   -2.38214882554191   -0.03425438972102
C          -2.75453088179210   -1.32837583962629   -0.03187213385682
C          -2.25781609541727    0.01489670004777   -0.01628777769074
C          -3.11476667867512    1.08984891722905   -0.01580330334518
C          -2.64303956775150    2.41624401149091   -0.00136957815143
C          -1.24565460457319    2.66675722036390    0.01474716575997
C           3.71772373516735   -1.70762877706175    0.01590326138562
C           4.52231095360562   -2.81761969527492    0.00888050242611
C           3.96456802906183   -4.10050289137075   -0.00960042439972
C           2.60535983062069   -4.24610570607552   -0.02054507415852
C          -3.54584853847734    3.49914765422061   -0.00314180396967
C          -3.09622396781047    4.79004801537400    0.01030678987109
C          -1.72033005475850    5.04276336886504    0.02639671763532
C          -0.82134949259824    4.00771806807381    0.02861136888525
H           1.48697774660875    2.70467755746926    0.04603055979193
H           2.97127005498459    0.83574006086868    0.04185738894887
H          -0.05037205806333   -4.28272172687188   -0.03906700839046
H          -2.29583626001505   -3.39464984396395   -0.04629031910702
H          -3.82639641146552   -1.46745540912260   -0.04193419014103
H          -4.18291933473960    0.92074664098627   -0.02730417746459
H           4.18339755700078   -0.73490866011114    0.03001591364173
H           5.59661871959176   -2.70417148625675    0.01751529565454
H           4.61041664070513   -4.96623469067096   -0.01517559400249
H           2.15745922063075   -5.22972797002361   -0.03489211427009
H          -4.60537356082135    3.28564712354500   -0.01570564549443
H          -3.79323236822416    5.61516576103370    0.00852958383051
H          -1.36654286899224    6.06345156963897    0.03700361283708
H           0.23158072084278    4.24099941458584    0.04100131412097
