
! RKS revDSD-PBEP86-D4/2021 defgrid3 RIJK RI NOPOP NOMULLIKEN NOLOEWDIN NOMAYER NoFrozencore NoUseSym

%basis
  Basis "def2-QZVPP"
  AuxJK "def2-QZVPP/C"
  AuxC "def2-QZVPP/C"
end
                    %pal nprocs 104 end
* xyz 0 1
C           0.23250427407092    0.09481245037980   -0.21117640755336
C          -0.96236043380542    0.84507697731032   -0.31328153405759
C          -0.91956992310657    2.22256304929476   -0.64085643520835
C           0.31588632712808    2.84363929095516   -0.94495327648521
C           1.47764716106255    2.02757636911285   -0.99780308332111
C           1.43558458646965    0.71643074816447   -0.65331265581379
C           0.17186101121261   -1.25642123399054    0.22769302711466
C          -1.09042355917435   -1.89905525194736    0.23611965292793
C          -2.26194895614179   -1.15066426673523    0.08439787279647
C          -2.22393159641553    0.21891620358385   -0.10601221359976
C          -3.40979034745790    1.01267685988481   -0.15895277056063
C          -3.35604454100831    2.33811638979848   -0.41257820274667
C          -2.11196179523794    2.98930751373772   -0.67322244770913
C          -2.03794386486791    4.34988181851777   -0.96379666391332
C          -0.82107784600269    4.95160644573261   -1.24020679222908
C           0.34251852164473    4.20969467965967   -1.24187825265845
C           1.31598755798661   -2.01269865216330    0.66645420334766
C           1.22086473417163   -3.42449999471395    0.74258566307335
C          -0.03916022582220   -4.05616307595633    0.53908980819689
C          -1.15815150533142   -3.31629592544003    0.37822831016215
C           2.50220639107075   -1.41577677365048    1.12818147330993
C           3.58454920520662   -2.17466782264179    1.50187099996297
C           3.52702671270060   -3.56733761421260    1.44298689918831
C           2.34966596088876   -4.17934944160387    1.09524040832004
H           2.40065905731072    2.47231374136276   -1.34253768717179
H           2.31798690729153    0.10790963509797   -0.77653206294883
H          -3.21596222205644   -1.65727519779168    0.13288908039478
H          -4.35555774001662    0.51916942679714    0.01566193841349
H          -4.25726299811275    2.93432206643972   -0.44089569174333
H          -2.94579217205870    4.93621835737501   -0.97476101464156
H          -0.78568719581670    6.00797447308353   -1.46472809353964
H           1.28789941625193    4.67846740272934   -1.47519173584510
H          -0.08560720240245   -5.13477976765880    0.58670279649243
H          -2.13061469634152   -3.78413727436278    0.32017463940315
H           2.54609710894455   -0.34455745339443    1.24832908664265
H           4.48258122120569   -1.69083472072353    1.85761953100352
H           4.39137515942676   -4.15530266158154    1.71441116813092
H           2.26594751411267   -5.25685676695979    1.11604046286666
