
! RKS revDSD-PBEP86-D4/2021 defgrid3 RIJK RI NOPOP NOMULLIKEN NOLOEWDIN NOMAYER NoFrozencore NoUseSym

%basis
  Basis "def2-QZVPP"
  AuxJK "def2-QZVPP/C"
  AuxC "def2-QZVPP/C"
end
                    %pal nprocs 104 end
* xyz 0 1
C           2.37022428230883   -0.94011316635996   -0.12843039926968
C           1.52407810585247   -2.07335913622005   -0.00878962200844
C           0.12126613958304   -1.91025926485909    0.10683240341525
C          -0.44910142709961   -0.56917544915363    0.04100110066018
C           0.44889338678497    0.56900954085319    0.04227398314026
C           1.79197869109008    0.35935066950132   -0.07379312591628
C           3.74126568563890   -1.11832576288781   -0.26447412882390
C           4.29749119046491   -2.39444959223887   -0.27801770848984
C           3.49799157645995   -3.50079415639279   -0.14268203425319
C           2.10073006434774   -3.36867122933079    0.00019356586866
C           1.26232671747391   -4.48875246396150    0.15455900318978
C          -0.08881189453576   -4.31963043437869    0.30673001580571
C          -0.65521495426686   -3.04649906284215    0.28512960935812
C          -1.79204279480605   -0.35923251108554   -0.07633207797508
C          -2.37007483051337    0.94035205136159   -0.13081090471138
C          -1.52402026411481    2.07342601229180   -0.00892569289301
C          -0.12146822182790    1.91002327292567    0.10913903299555
C          -3.74086747250810    1.11888264828577   -0.26895165324855
C          -4.29682768054583    2.39512542906402   -0.28286942939882
C          -3.49741233395234    3.50127754282970   -0.14545105483989
C          -2.10046518033987    3.36882519043297    0.00013027724192
C          -1.26218915008535    4.48858954771675    0.15748795763861
C           0.08854173674961    4.31905083006968    0.31282099805761
C           0.65479452894908    3.04585827305980    0.29090479368919
H           2.47658642325246    1.19113072558693   -0.14152139960781
H           4.38112352746840   -0.25216258670300   -0.35568447114316
H           5.36636114932163   -2.50775169531906   -0.38854875150769
H           3.92723993807209   -4.49235450868638   -0.14232372002587
H           1.70094983421215   -5.47606120649927    0.16087367774008
H          -0.73070070144911   -5.17793869385645    0.44459246266340
H          -1.72180264740799   -2.96429863907121    0.42264178833089
H          -2.47672992407387   -1.19082747805574   -0.14550958694095
H          -4.38076212496510    0.25289945836767   -0.36160498381835
H          -5.36547221182467    2.50867517353638   -0.39531798141249
H          -3.92650130581525    4.49290731341415   -0.14537060315351
H          -1.70062640769521    5.47598128638976    0.16376518224798
H           0.73022816125575    5.17707391658800    0.45337488045326
H           1.72102038679718    2.96321814166273    0.43095858821479
