! RKS revDSD-PBEP86-D4/2021 defgrid3 RIJK RI NOPOP NOMULLIKEN NOLOEWDIN NOMAYER NoFrozencore NoUseSym

%basis
  Basis "def2-QZVPP"
  AuxJK "def2-QZVPP/C"
  AuxC "def2-QZVPP/C"
end

%pal
    nprocs 104
end

* xyz 0 1
C           2.25373986546470   -0.10830961081824   -0.21359014603794
C           1.34384942899304   -1.17508071093764   -0.40166465317487
C          -0.05848569404098   -0.96380247885673   -0.25755824499027
C          -0.55357254225751    0.30362251422712    0.08263861927151
C           0.32941284473141    1.43810546445520   -0.06635397519891
C           1.72713926036002    1.23902751294158   -0.13956713156099
C           3.61870416200029   -0.39502803844512   -0.19131582205535
C           4.08686553871609   -1.67756632825329   -0.41373752510062
C           3.20681594061871   -2.70848196305252   -0.67283801305839
C           1.83166923997082   -2.47867427687327   -0.66052789323784
C           0.90265554976338   -3.54127387637706   -0.88640412941789
C          -0.42666715210361   -3.34051761459036   -0.78234344447131
C          -0.95412077880124   -2.06366125723108   -0.41742681913339
C          -2.30661047338334   -1.87170248038576   -0.21671135525240
C          -2.79428724329279   -0.66974413813744    0.31336444459675
C          -1.89915744674123    0.41535249767855    0.53813633103856
C          -0.17266365603895    2.73423955246724   -0.25878069822164
C           0.66524718790451    3.81728118697861   -0.37762244262713
C           2.04271382276613    3.63405643954279   -0.32515653154386
C           2.55828086830378    2.36236161201603   -0.23957535113010
C          -4.15274164165193   -0.53392822285523    0.67879868347548
C          -4.59867810248840    0.58373760755145    1.32198057304954
C          -3.68896736440766    1.59377524163340    1.66998543187941
C          -2.37765936653836    1.51075236731437    1.28983518885772
H           4.33592311422795    0.38656381992970    0.00308343273177
H           5.15023030307992   -1.86790490259433   -0.39432793638526
H           3.57437972261241   -3.70581848355528   -0.86732012362137
H           1.30013827963093   -4.51598990278931   -1.13184730340252
H          -1.12642799536042   -4.14861842103299   -0.94206075552721
H          -2.99740932941012   -2.68141715081969   -0.40649763753557
H          -1.23639159721767    2.87656331682160   -0.36958995188170
H           0.25512788980221    4.80518282611458   -0.52747997580304
H           2.70582991293146    4.48337536858388   -0.39976502636011
H           3.62836450603670    2.23619029330517   -0.28342533205973
H          -4.82527554188449   -1.35233830651376    0.46419273306794
H          -5.63691456897570    0.67910911432728    1.60418177294249
H          -4.02899555632045    2.43541689909096    2.25567299225073
H          -1.68206138351688    2.26714452567624    1.61961801213889
*
