! RKS revDSD-PBEP86-D4/2021 defgrid3 RIJK RI NOPOP NOMULLIKEN NOLOEWDIN NOMAYER NoFrozencore NoUseSym

%basis
  Basis "def2-QZVPP"
  AuxJK "def2-QZVPP/C"
  AuxC "def2-QZVPP/C"
end

%pal
    nprocs 104
end

* xyz 0 1
C           1.77980951786843   -0.60485377023621    0.00485010127815
C           0.36864217293278   -0.60824059306742    0.00597470924620
C          -0.36859060281777    0.60834457361131    0.00600794767975
C           0.33822814435998    1.84763340367353    0.00680278582355
C           1.76051220526746    1.82075054710092    0.00918007579646
C           2.44570948669767    0.65421761798061    0.00786195928699
C           2.49325186448802   -1.84148544363728    0.00054278210900
C           1.76277854019995   -3.06444528460540    0.00081183513386
C           0.36320029797111   -3.03849694216106    0.00483580708933
C          -0.33817643438962   -1.84752965063369    0.00646161685300
C          -1.76046095956550   -1.82064719454935    0.00852452274466
C          -2.44565802951754   -0.65411405892833    0.00726355470726
C          -1.77975777544603    0.60495804266373    0.00464450121460
C          -2.49319945434577    1.84159060322302    0.00046872993011
C          -1.76272566638761    3.06455012995233    0.00095394503352
C          -0.36314804555566    3.03860096745042    0.00517550099084
C           3.90180163444567   -1.92499232632234   -0.00528186850209
C           4.54818994799370   -3.13024946406871   -0.01030344150569
C           3.82285222797899   -4.33098686786660   -0.00936189278950
C           2.45969021685539   -4.29472377816408   -0.00377973562394
C          -3.90174894972453    1.92509920283634   -0.00539872584730
C          -4.54813625186152    3.13035729078753   -0.01032088751068
C          -3.82279773783461    4.33109410209234   -0.00924971926132
C          -2.45963615045899    4.29482950234833   -0.00358395363496
H           2.28527096691756    2.76578760698425    0.01161715347600
H           3.52343199931965    0.68443759630511    0.00961119274710
H          -0.17824653203536   -3.97454084710829    0.00568406018905
H          -2.28522023291376   -2.76568468794896    0.01065665776954
H          -3.52338089648219   -0.68433485252886    0.00872882565885
H           0.17829883583560    3.97464466788110    0.00620665385571
H           4.49513246432181   -1.02444114953090   -0.00658051192892
H           5.62802040173407   -3.16312597842779   -0.01522644852376
H           4.34966115200696   -5.27389721268319   -0.01332816644120
H           1.88315895449234   -5.20900071553707   -0.00328045134904
H          -4.49508069570884    1.02454879222565   -0.00677965009077
H          -5.62796654717925    3.16323503028854   -0.01525928331098
H          -4.34960578064961    5.27400514923976   -0.01316891881130
H          -1.88310428183729    5.20910598437990   -0.00296127046488
*
