! RKS revDSD-PBEP86-D4/2021 defgrid3 RIJK RI NOPOP NOMULLIKEN NOLOEWDIN NOMAYER NoFrozencore NoUseSym

%basis
  Basis "def2-QZVPP"
  AuxJK "def2-QZVPP/C"
  AuxC "def2-QZVPP/C"
end

%pal
    nprocs 104
end

* xyz 0 1
C           1.41827139440599   -0.74929492572112    0.00301294164223
C           0.65692009819499   -1.94273990146105    0.00097007464267
C          -0.76864428234344   -1.90128702398279    0.00221097956404
C          -1.45935760268267   -0.66561962018791    0.00591763337946
C          -0.69835155750641    0.57590241208092    0.00371140491538
C           0.73068819218083    0.53434749061167    0.00165395494751
C           2.80586442121693   -0.85210883805732    0.00600430278831
C           3.44575062707416   -2.08257443378166    0.00484552391631
C           2.71366560274214   -3.24613229381654    0.00059308915401
C           1.31636915968882   -3.19631551997603   -0.00094382449873
C           0.54775635615397   -4.39531447962738   -0.00387414643938
C          -0.80218174713690   -4.35606073465667   -0.00293698826893
C          -1.49982133438029   -3.11442667074817    0.00117351688556
C          -2.89764778483309   -3.08296923865425    0.00476613201138
C          -3.56087921224627   -1.87883970536217    0.01018358184278
C          -2.85057512784060   -0.68763481186596    0.01076326821597
C          -1.32634295488748    1.80800350225752    0.00189940459790
C          -0.62195129580225    3.01774692334079   -0.00210637244812
C           0.79629698180845    2.97650288181619   -0.00501460948357
C           1.42920766044602    1.72787056989667   -0.00307565012672
C          -1.27077850707752    4.27299551879320   -0.00404334145159
C          -0.54585940649032    5.42924632374518   -0.00881591904586
C           0.86044575573907    5.38834872597514   -0.01195909093930
C           1.51695993782674    4.19192405574146   -0.01007975769553
H           3.42161772235611    0.03247443728410    0.00974394603358
H           4.52552519801213   -2.11969669138487    0.00726434513626
H           3.20669097302481   -4.20757317092525   -0.00090963766511
H           1.07696227838869   -5.33774547098175   -0.00645106658395
H          -1.38525841033210   -5.26614865810392   -0.00476626694972
H          -3.44570722318985   -4.01413777485189    0.00384140387666
H          -4.64098264214654   -1.85315788451176    0.01396162963392
H          -3.41388540332891    0.23123089072188    0.01532973422477
H          -2.40292651578030    1.87499553363217    0.00286921814217
H           2.50786093809818    1.73218297461857   -0.00620174094581
H          -2.35143402835030    4.29954738059007   -0.00181301231777
H          -1.04531227398079    6.38718459525371   -0.01045762768950
H           1.41471198720217    6.31564347351496   -0.01588330850826
H           2.59733203275718    4.15563015180288   -0.01238373147430
*
