
! RKS revDSD-PBEP86-D4/2021 defgrid3 RIJK RI NOPOP NOMULLIKEN NOLOEWDIN NOMAYER NoFrozencore NoUseSym

%basis
  Basis "def2-QZVPP"
  AuxJK "def2-QZVPP/C"
  AuxC "def2-QZVPP/C"
end
                    %pal nprocs 104 end
* xyz 0 1
C           0.48982795802297    0.63624395856093    0.02036303429938
C          -0.75465102482199    1.29176995684682   -0.00482994112350
C          -0.82288960267103    2.70757274268980    0.00069908293034
C           0.36563008164187    3.47583158360243    0.03300283043862
C           1.60501286446266    2.79224764883633    0.06040449272102
C           1.66105661596410    1.43382715056474    0.05411875761586
C           0.53800763579454   -0.80243993808200    0.01101846176796
C          -0.69546705104628   -1.53346021175060   -0.01974170684278
C          -1.92084719194941   -0.83495098263120   -0.04195195453424
C          -1.97355959465961    0.53747538713966   -0.03659146959988
C          -3.22110179093585    1.23909261350133   -0.06221431549351
C          -3.27260511701592    2.58595704259796   -0.05788195117913
C          -2.07672472249730    3.37146516129366   -0.02635308462065
C          -2.11351223113439    4.76073965316926   -0.02164025907442
C          -0.94126140569422    5.50502791824504    0.00974274441362
C           0.28231023393443    4.87594039558367    0.03705353736351
C           1.72340505116823   -1.52725441937741    0.02889833616627
C           1.74702051692425   -2.92218007892333    0.01824146973628
C           0.51606289366548   -3.64454073012230   -0.01087523471174
C          -0.67486663955667   -2.92745501252717   -0.02890924647877
C           2.96174170704347   -3.65105657941381    0.03497378848915
C           2.95955623261358   -5.01297532517951    0.02367581624275
C           1.74258808851249   -5.72609276082829   -0.00462425540378
C           0.55452301362875   -5.06179269466448   -0.02130892196643
H           2.51447810463851    3.37594218428262    0.08653230930502
H           2.62801999573199    0.95696174655128    0.07604114623198
H          -2.83872772382078   -1.40634996553038   -0.06494281286188
H          -4.12666737514506    0.64915355796940   -0.08580523186003
H          -4.21997473200115    3.10608368982433   -0.07798490403021
H          -3.07016328618100    5.26323265059784   -0.04279714795563
H          -0.99432497258780    6.58421575661535    0.01272671608600
H           1.19494744559763    5.45411195505611    0.06177959583077
H           2.67570879408604   -1.01984890482744    0.05098416152331
H          -1.61404370833486   -3.46334196615570   -0.05167638573934
H           3.89259200376560   -3.10174122071757    0.05671401193173
H           3.88996407497687   -5.56182659135806    0.03624487383625
H           1.76663465254351   -6.80612113848195   -0.01297842970773
H          -0.38169981559799   -5.60146421722893   -0.04310789629904
