! RKS revDSD-PBEP86-D4/2021 defgrid3  NORI NOPOP NoFrozencore NoUseSym

%basis
Basis "def2-SVP"


end

%method
ScalHFX 0.69
ScalDFX 0.31
ScalDFC 0.4038
ScalLDAC 0.4038

D4S6 0.4612
D4S8 0.0
D4A1 0.44
D4A2 3.60
end

%mp2
PS 0.5979
PT 0.0571
MaxCore 45000
Q1Opt 1

end

%pal
nprocs 10
end

*XYZFILE 0 1 /scratch/kx58/rs2200/dhdft/inputs/compas3D-xyzs/hc_c24h14_0pent_2.xyz
